%%% static parameters %%%
timespan = 1;
initial_fruit_bushes = [40];
initial_foragers = [40];
ticks_to_flee = [100];
bush_growth_chance = [10];
rate_of_mutation = [5.0];
%%% dynamic parameters %%%
mean_strength_th = 0.03836263144016616;
mean_strength_w = 69;
mean_speed_th = 0.9312101002577127;
mean_speed_w = 33;
mean_intelligence_th = 0.9462722817213749;
mean_intelligence_w = 77;
murder_rate_th = 0.16722873467686983;
murder_rate_w = 90;
age_death_rate_th = 0.3893706020300006;
age_death_rate_w = 54;
starvation_rate_th = 0.062481829853294646;
starvation_rate_w = 94;
mean_reactive_aggression_th = 0.8155737685755781;
mean_reactive_aggression_w = 60;
mean_proactive_aggression_th = 0.7982755414729308;
mean_proactive_aggression_w = 16;
average_population_th = 684;
average_population_w = 82;
